(declare-const y0 Real)
(declare-const y1 Real)
(declare-const y2 Real)
(declare-const y3 Real)
(declare-const y4 Real)
(declare-const y5 Real)
(declare-const y6 Real)
(declare-const y7 Real)
(declare-const y8 Real)
(declare-const y9 Real)
(declare-const y10 Real)
(declare-const y11 Real)
(declare-const y12 Real)
(declare-const y13 Real)
(declare-const y14 Real)
(declare-const y15 Real)
(declare-const y16 Real)
(declare-const y17 Real)
(declare-const y18 Real)
(declare-const y19 Real)
(declare-const y20 Real)
(declare-const y21 Real)
(declare-const y22 Real)
(declare-const y23 Real)
(declare-const y24 Real)
(declare-const y25 Real)
(declare-const y26 Real)
(declare-const y27 Real)
(declare-const y28 Real)
(declare-const y29 Real)
(declare-const y30 Real)
(declare-const y31 Real)
(declare-const y32 Real)
(declare-const y33 Real)
(declare-const y34 Real)
(declare-const y35 Real)
(declare-const y36 Real)
(declare-const y37 Real)
(declare-const y38 Real)
(declare-const y39 Real)
(declare-const y40 Real)
(declare-const y41 Real)
(declare-const y42 Real)
(declare-const y43 Real)
(declare-const y44 Real)
(declare-const y45 Real)
(declare-const y46 Real)
(declare-const y47 Real)
(declare-const y48 Real)
(declare-const y49 Real)
(declare-const y50 Real)
(declare-const y51 Real)
(declare-const y52 Real)
(declare-const y53 Real)
(declare-const y54 Real)
(declare-const y55 Real)
(declare-const y56 Real)
(declare-const y57 Real)
(declare-const y58 Real)
(declare-const y59 Real)
(declare-const y60 Real)
(declare-const y61 Real)
(declare-const y62 Real)
(declare-const y63 Real)
(declare-const y64 Real)
(declare-const y65 Real)
(declare-const y66 Real)
(declare-const y67 Real)
(declare-const y68 Real)
(declare-const y69 Real)
(declare-const y70 Real)
(declare-const y71 Real)
(declare-const y72 Real)
(declare-const y73 Real)
(assert (< (+ (+ y70 62) 75) y25))
(assert (= (< y43 y15) (= (< 74 (+ y65 y9)) (= true (= (< y22 4) (< 56 y31))))))
(assert (< 83 (+ 38 (+ (+ 29 (+ 73 y28)) y72))))
(assert (= 98 (+ y48 93)))
(assert (< (+ 42 y72) y52))
(assert (= (+ 12 97) (+ (+ 61 83) y33)))
(assert (= true false))
(assert (= (= 67 (+ 61 y52)) (= (+ (+ y44 y65) 16) (+ y15 y22))))
(assert (= (= y64 y73) (= (< 28 (+ 46 y17)) (= (+ (+ 44 y38) 13) 11))))
(check-sat)
